p tdp 93 92
67 53
37 62
27 81
28 90
39 31
64 51
75 52
8 70
87 38
2 21
65 5
12 19
85 4
32 79
72 39
9 58
33 88
35 49
76 65
34 84
74 85
83 35
19 11
71 32
16 23
31 65
29 89
34 75
44 68
32 21
60 80
88 57
47 1
66 80
69 89
3 59
77 61
78 26
45 56
22 17
44 93
25 43
54 29
56 50
80 6
70 91
1 92
6 64
91 59
69 24
87 44
27 25
3 23
68 50
1 48
14 42
13 63
46 40
2 28
27 91
37 15
92 40
20 6
41 55
79 83
26 63
19 39
82 73
22 23
38 29
78 92
53 81
86 15
36 10
61 19
42 23
85 5
28 41
58 46
37 42
7 30
83 16
74 18
5 24
49 7
81 6
73 75
45 52
48 57
56 26
56 36
17 9
